BPSO1 Results:
8311 8311 8311 8311 8321 8321 8321 8371 8371 8371 8371 8371 8371 8371 8371 8371 8371 8371 8371 8371 8371 8371 8371 8371 8371 8371 8371 8371 8371 8371 8371 8371 8371 8371 8371 8371 8371 8371 8371 8371
7980 8202 8202 8217 8324 8397 8397 8397 8397 8397 8397 8397 8397 8397 8397 8397 8397 8397 8397 8397 8397 8397 8397 8397 8397 8397 8397 8397 8397 8397 8397 8397 8397 8397 8397 8397 8397 8397 8397 8397
7921 8126 8126 8126 8155 8155 8224 8224 8224 8224 8224 8224 8224 8224 8261 8261 8261 8261 8261 8261 8261 8261 8261 8261 8261 8261 8261 8261 8261 8261 8261 8261 8261 8261 8261 8261 8261 8261 8261 8261
8067 8106 8106 8148 8148 8148 8248 8248 8248 8248 8275 8275 8275 8275 8275 8275 8275 8275 8275 8275 8275 8275 8275 8275 8275 8275 8275 8275 8275 8275 8275 8275 8275 8275 8275 8275 8275 8275 8275 8275
7906 8218 8218 8218 8295 8295 8295 8295 8295 8295 8295 8295 8295 8295 8295 8295 8295 8295 8295 8295 8295 8295 8295 8295 8295 8295 8295 8295 8295 8295 8295 8295 8295 8295 8295 8295 8295 8295 8295 8295
8008 8322 8322 8322 8322 8322 8322 8378 8378 8462 8462 8462 8462 8462 8462 8462 8462 8462 8462 8462 8462 8462 8462 8462 8462 8462 8462 8462 8462 8462 8462 8462 8462 8462 8462 8462 8462 8462 8462 8462
7716 8068 8068 8236 8236 8236 8329 8329 8353 8353 8353 8353 8353 8353 8353 8353 8353 8353 8353 8353 8353 8353 8353 8353 8353 8353 8353 8353 8353 8353 8353 8353 8353 8353 8353 8353 8353 8353 8353 8353
8124 8157 8157 8157 8157 8367 8367 8367 8367 8367 8367 8367 8367 8367 8367 8367 8367 8367 8367 8367 8367 8367 8367 8367 8367 8367 8367 8367 8367 8367 8367 8367 8367 8367 8367 8367 8367 8367 8367 8367
8019 8133 8133 8186 8186 8186 8186 8186 8186 8241 8241 8241 8241 8241 8241 8241 8241 8241 8283 8283 8283 8283 8283 8283 8283 8283 8283 8283 8283 8283 8283 8283 8283 8283 8283 8283 8283 8283 8283 8283
8030 8246 8442 8442 8442 8442 8442 8442 8442 8442 8442 8442 8442 8442 8442 8442 8442 8442 8442 8442 8442 8442 8442 8442 8442 8442 8442 8442 8442 8442 8442 8442 8442 8442 8442 8442 8442 8442 8442 8442
7761 7761 7935 8107 8220 8231 8319 8319 8319 8319 8319 8319 8319 8319 8319 8319 8319 8319 8319 8319 8319 8319 8319 8319 8319 8319 8319 8319 8319 8319 8319 8319 8319 8319 8319 8319 8319 8319 8319 8319
7757 7930 8184 8184 8200 8200 8200 8200 8200 8200 8200 8200 8200 8200 8200 8200 8200 8200 8200 8200 8200 8200 8278 8278 8278 8278 8278 8278 8278 8278 8278 8278 8278 8278 8278 8278 8278 8278 8278 8278
7980 7980 7980 8232 8232 8232 8346 8346 8346 8346 8346 8346 8346 8346 8346 8346 8346 8346 8346 8346 8346 8346 8346 8346 8346 8346 8346 8346 8346 8346 8346 8346 8346 8346 8346 8346 8346 8346 8346 8346
7788 8194 8226 8226 8226 8320 8320 8320 8320 8320 8331 8331 8331 8331 8331 8331 8331 8331 8331 8331 8331 8331 8331 8331 8331 8331 8331 8331 8331 8331 8331 8331 8331 8331 8331 8331 8331 8331 8331 8331
7361 7878 7912 8171 8173 8173 8173 8203 8203 8203 8256 8256 8256 8256 8442 8442 8442 8442 8442 8442 8442 8442 8442 8442 8442 8442 8442 8442 8442 8442 8442 8442 8442 8442 8442 8442 8442 8442 8442 8442
7724 8072 8072 8286 8286 8286 8350 8350 8350 8350 8350 8350 8350 8350 8350 8350 8350 8350 8350 8350 8350 8350 8350 8350 8391 8391 8391 8391 8391 8391 8391 8391 8391 8391 8391 8391 8391 8391 8391 8391
7909 8146 8201 8223 8226 8226 8246 8246 8246 8246 8246 8246 8246 8246 8246 8246 8246 8464 8464 8464 8464 8464 8464 8464 8464 8464 8464 8464 8464 8464 8464 8464 8464 8464 8464 8464 8464 8464 8464 8464
7975 8175 8233 8233 8233 8233 8257 8268 8268 8268 8268 8300 8300 8300 8300 8300 8300 8300 8300 8300 8300 8300 8300 8300 8300 8300 8300 8300 8300 8300 8300 8300 8300 8300 8300 8300 8300 8300 8300 8300
8039 8186 8242 8242 8242 8242 8242 8366 8366 8366 8366 8366 8366 8366 8366 8366 8366 8366 8366 8366 8366 8366 8366 8366 8366 8366 8366 8366 8366 8366 8366 8366 8366 8366 8366 8366 8366 8366 8366 8366
8112 8112 8230 8272 8272 8272 8272 8272 8272 8272 8272 8272 8272 8272 8272 8272 8272 8272 8272 8272 8272 8272 8272 8272 8272 8272 8272 8272 8272 8272 8272 8272 8272 8272 8272 8272 8272 8272 8272 8272
7803 8020 8069 8069 8113 8113 8116 8116 8265 8265 8265 8265 8265 8265 8265 8265 8265 8265 8265 8265 8265 8265 8265 8265 8265 8265 8265 8265 8265 8265 8265 8265 8265 8265 8265 8265 8265 8265 8265 8265
7837 8049 8062 8272 8272 8272 8272 8272 8323 8323 8363 8363 8363 8363 8363 8363 8363 8363 8363 8363 8363 8363 8363 8363 8363 8363 8363 8363 8363 8363 8363 8363 8363 8363 8363 8363 8363 8363 8363 8363
8040 8140 8238 8238 8238 8238 8238 8238 8238 8238 8238 8238 8245 8245 8245 8245 8245 8245 8245 8245 8245 8245 8245 8292 8292 8292 8292 8292 8292 8292 8292 8292 8292 8292 8292 8292 8292 8292 8292 8292
8067 8100 8166 8166 8249 8392 8392 8392 8392 8392 8392 8392 8392 8392 8392 8392 8392 8392 8392 8392 8392 8392 8392 8392 8392 8392 8392 8392 8392 8392 8392 8392 8392 8392 8392 8392 8392 8392 8392 8392
7826 8014 8056 8242 8242 8249 8249 8249 8249 8249 8313 8313 8313 8313 8313 8313 8313 8313 8313 8313 8313 8313 8313 8313 8313 8313 8313 8313 8313 8313 8313 8313 8313 8313 8313 8313 8313 8313 8313 8313
7812 8231 8266 8266 8266 8266 8383 8383 8383 8383 8383 8383 8383 8383 8383 8383 8383 8383 8383 8383 8383 8383 8383 8383 8383 8383 8383 8383 8383 8383 8383 8383 8383 8383 8383 8383 8383 8383 8383 8383
7818 8179 8179 8208 8208 8208 8208 8208 8208 8208 8208 8208 8208 8208 8208 8208 8337 8337 8337 8337 8337 8337 8337 8337 8337 8337 8337 8337 8337 8337 8337 8337 8337 8337 8337 8337 8337 8337 8337 8337
7999 7999 8158 8245 8245 8245 8269 8269 8269 8269 8269 8269 8269 8269 8269 8269 8269 8269 8269 8269 8269 8285 8285 8285 8285 8285 8285 8285 8285 8285 8285 8285 8285 8285 8285 8285 8285 8285 8285 8285
7691 7954 8087 8105 8218 8328 8328 8328 8328 8328 8328 8328 8328 8328 8328 8328 8328 8328 8328 8328 8328 8328 8328 8328 8328 8328 8328 8328 8328 8328 8328 8328 8328 8328 8328 8328 8328 8328 8328 8328
7475 8100 8260 8374 8374 8374 8456 8456 8456 8456 8456 8456 8456 8456 8456 8456 8456 8456 8456 8456 8456 8456 8456 8456 8456 8456 8456 8456 8456 8456 8456 8456 8456 8456 8456 8456 8456 8456 8456 8456

GA Results:
7720 8301 8442 8442 8442 8489 8586 8586 8586 8586 8612 8612 8612 8612 8621 8621 8627 8638 8670 8670 8676 8691 8691 8697 8697 8697 8697 8697 8697 8697 8697 8697 8697 8697 8697 8697 8697 8697 8697 8697
7984 8273 8341 8430 8430 8430 8574 8574 8577 8577 8577 8577 8598 8612 8613 8620 8683 8683 8683 8698 8698 8698 8698 8698 8698 8698 8698 8698 8698 8698 8698 8698 8698 8698 8698 8698 8698 8698 8698 8698
7770 8284 8284 8411 8428 8536 8536 8536 8536 8581 8581 8581 8631 8662 8662 8662 8662 8662 8662 8676 8676 8676 8676 8683 8683 8683 8683 8683 8683 8683 8683 8683 8683 8683 8683 8683 8683 8683 8683 8683
8047 8237 8290 8451 8451 8484 8510 8529 8529 8567 8601 8615 8615 8615 8615 8620 8673 8673 8673 8695 8695 8695 8701 8701 8701 8701 8701 8701 8701 8701 8701 8701 8701 8701 8701 8701 8701 8701 8701 8701
7812 8136 8299 8299 8350 8375 8551 8551 8573 8642 8642 8642 8642 8642 8642 8642 8657 8657 8657 8671 8671 8671 8671 8671 8671 8671 8671 8671 8671 8672 8672 8678 8678 8678 8678 8678 8678 8693 8693 8693
7677 8230 8317 8346 8449 8449 8456 8474 8538 8579 8579 8579 8580 8599 8641 8641 8641 8641 8666 8666 8706 8706 8706 8706 8706 8706 8706 8706 8706 8706 8706 8706 8706 8706 8706 8706 8706 8706 8706 8706
8006 8236 8259 8301 8406 8516 8516 8521 8529 8568 8587 8612 8645 8645 8645 8681 8688 8688 8688 8688 8700 8700 8700 8700 8700 8700 8700 8700 8700 8700 8700 8700 8700 8700 8700 8700 8700 8700 8700 8700
7927 8324 8324 8381 8381 8505 8505 8603 8608 8612 8612 8675 8675 8675 8675 8675 8675 8675 8675 8675 8675 8675 8676 8676 8676 8676 8676 8676 8680 8709 8709 8709 8709 8709 8709 8709 8709 8709 8709 8709
7842 8209 8348 8457 8457 8493 8493 8493 8597 8597 8597 8597 8640 8649 8673 8673 8679 8685 8685 8685 8685 8685 8685 8685 8685 8685 8685 8685 8685 8685 8685 8685 8685 8685 8685 8685 8685 8685 8685 8685
8091 8234 8427 8427 8427 8497 8503 8588 8599 8599 8602 8602 8609 8614 8662 8662 8662 8665 8665 8668 8668 8668 8668 8668 8668 8668 8668 8668 8668 8668 8668 8668 8668 8668 8668 8668 8668 8668 8668 8668
7818 8216 8249 8358 8392 8405 8410 8497 8497 8512 8514 8561 8567 8580 8606 8629 8629 8668 8674 8674 8674 8676 8676 8685 8685 8685 8685 8685 8685 8685 8685 8685 8685 8685 8685 8685 8685 8685 8685 8685
7795 8310 8420 8420 8446 8496 8523 8523 8584 8607 8607 8607 8607 8608 8630 8643 8649 8670 8670 8676 8678 8678 8678 8683 8683 8683 8703 8703 8703 8703 8703 8703 8703 8703 8703 8703 8703 8703 8703 8703
7836 8261 8364 8364 8463 8523 8523 8523 8523 8542 8558 8558 8602 8649 8652 8691 8691 8697 8697 8697 8697 8697 8697 8697 8697 8697 8697 8697 8697 8697 8697 8697 8697 8697 8697 8697 8697 8697 8721 8721
7882 8271 8271 8322 8413 8413 8466 8507 8520 8532 8574 8595 8595 8637 8663 8663 8663 8687 8687 8716 8716 8716 8722 8722 8722 8722 8722 8722 8722 8722 8722 8722 8722 8722 8722 8722 8722 8722 8722 8722
7764 8235 8293 8371 8397 8501 8501 8501 8547 8547 8645 8645 8647 8647 8674 8701 8701 8701 8701 8701 8701 8701 8701 8701 8701 8701 8701 8701 8701 8701 8701 8701 8701 8701 8701 8701 8701 8701 8701 8701
7875 8041 8192 8228 8413 8413 8503 8513 8513 8599 8599 8599 8599 8599 8645 8645 8645 8645 8649 8672 8672 8685 8685 8685 8685 8685 8685 8685 8685 8685 8685 8685 8685 8685 8685 8685 8685 8685 8685 8685
7776 8172 8273 8352 8478 8478 8544 8544 8623 8623 8623 8630 8630 8638 8656 8666 8668 8668 8668 8668 8668 8668 8668 8673 8691 8691 8691 8691 8697 8697 8697 8697 8697 8697 8697 8697 8697 8697 8697 8697
7848 8068 8310 8347 8347 8347 8348 8403 8415 8558 8577 8617 8617 8655 8665 8665 8665 8665 8667 8667 8667 8667 8667 8667 8667 8667 8667 8667 8667 8667 8667 8667 8667 8667 8667 8667 8667 8667 8667 8667
7852 8148 8257 8335 8462 8462 8485 8488 8491 8498 8550 8623 8623 8623 8623 8623 8623 8623 8651 8657 8657 8657 8657 8657 8657 8657 8657 8657 8657 8698 8698 8698 8698 8698 8698 8698 8698 8698 8698 8698
7616 8400 8423 8459 8459 8467 8582 8582 8627 8627 8639 8639 8639 8659 8659 8659 8659 8659 8659 8665 8699 8699 8699 8699 8699 8699 8699 8699 8699 8699 8699 8699 8699 8699 8699 8699 8699 8699 8699 8699
7924 8132 8303 8303 8385 8481 8517 8522 8563 8618 8618 8618 8627 8627 8651 8651 8651 8659 8666 8684 8690 8690 8701 8701 8701 8701 8701 8701 8701 8701 8701 8701 8701 8701 8701 8701 8701 8701 8701 8701
7720 8083 8318 8318 8426 8536 8536 8548 8566 8566 8582 8629 8629 8629 8629 8629 8669 8669 8675 8682 8682 8682 8682 8682 8682 8682 8682 8682 8682 8682 8682 8682 8684 8684 8684 8684 8684 8684 8684 8684
7990 8241 8309 8390 8390 8453 8491 8491 8560 8560 8560 8560 8601 8626 8631 8631 8631 8631 8690 8690 8716 8716 8716 8722 8722 8722 8722 8722 8722 8722 8722 8722 8722 8722 8722 8722 8722 8722 8722 8722
7963 8210 8287 8364 8464 8487 8522 8543 8546 8546 8546 8588 8625 8625 8625 8625 8625 8633 8675 8675 8675 8675 8675 8675 8675 8675 8675 8675 8675 8675 8675 8675 8675 8675 8675 8675 8675 8675 8675 8675
7802 8155 8292 8386 8423 8476 8476 8476 8509 8509 8586 8586 8595 8606 8606 8617 8650 8650 8650 8650 8679 8679 8679 8679 8699 8706 8706 8706 8706 8706 8706 8706 8706 8706 8706 8706 8706 8706 8706 8706
7927 8245 8322 8393 8393 8429 8429 8463 8553 8553 8558 8566 8566 8592 8613 8641 8681 8683 8683 8683 8683 8683 8683 8683 8683 8683 8683 8683 8683 8683 8683 8683 8683 8683 8683 8683 8683 8683 8683 8683
7840 8333 8409 8409 8409 8409 8443 8443 8459 8488 8516 8523 8523 8556 8613 8613 8613 8635 8635 8635 8638 8652 8652 8654 8654 8654 8654 8654 8654 8654 8654 8654 8654 8654 8654 8654 8654 8654 8654 8654
8167 8167 8371 8376 8377 8415 8486 8486 8486 8528 8528 8566 8568 8572 8608 8608 8619 8653 8653 8675 8675 8675 8675 8675 8675 8675 8699 8699 8699 8699 8699 8699 8699 8699 8699 8699 8699 8699 8699 8699
7988 8302 8390 8412 8498 8564 8564 8564 8588 8633 8640 8643 8643 8643 8665 8691 8691 8691 8692 8697 8697 8697 8697 8697 8697 8697 8697 8697 8697 8697 8697 8697 8697 8697 8697 8697 8697 8697 8697 8697
7667 8058 8228 8389 8400 8483 8483 8483 8549 8575 8607 8607 8607 8641 8647 8669 8683 8683 8683 8683 8704 8704 8704 8704 8704 8704 8704 8704 8704 8704 8704 8704 8704 8704 8704 8704 8704 8704 8704 8704

TBPSO Results:
7734 8066 8139 8139 8139 8139 8139 8162 8162 8162 8222 8277 8277 8277 8277 8277 8277 8277 8277 8277 8277 8277 8277 8277 8277 8277 8277 8277 8277 8277 8277 8277 8277 8277 8277 8277 8277 8277 8277 8277
7730 7930 8164 8164 8164 8197 8197 8197 8197 8197 8345 8345 8345 8345 8345 8345 8345 8345 8345 8345 8345 8345 8345 8345 8345 8345 8345 8345 8345 8345 8345 8345 8345 8345 8345 8345 8345 8345 8345 8345
7132 8023 8277 8308 8308 8308 8308 8311 8311 8311 8311 8311 8311 8311 8311 8311 8311 8311 8311 8311 8311 8311 8311 8311 8311 8311 8311 8311 8311 8311 8311 8311 8311 8311 8311 8311 8311 8311 8311 8311
7883 8209 8209 8209 8209 8267 8462 8462 8462 8462 8462 8462 8462 8462 8462 8462 8462 8462 8462 8462 8462 8462 8462 8462 8462 8462 8462 8462 8462 8462 8462 8462 8462 8462 8462 8462 8462 8462 8462 8462
7687 8132 8132 8132 8176 8176 8177 8187 8193 8193 8193 8193 8193 8193 8193 8193 8193 8193 8193 8193 8286 8286 8286 8286 8286 8286 8286 8286 8286 8286 8286 8286 8286 8286 8286 8286 8286 8286 8286 8286
7942 8139 8259 8370 8370 8370 8370 8370 8370 8370 8370 8370 8370 8370 8370 8370 8370 8370 8370 8370 8370 8370 8370 8370 8370 8370 8370 8370 8370 8370 8370 8370 8370 8370 8370 8370 8370 8370 8370 8370
7793 8115 8402 8433 8433 8433 8433 8433 8433 8433 8433 8433 8433 8433 8433 8433 8433 8433 8433 8433 8433 8433 8433 8433 8433 8433 8433 8433 8433 8433 8433 8433 8433 8433 8433 8433 8433 8433 8433 8433
7722 8091 8219 8219 8219 8255 8255 8301 8301 8301 8301 8301 8301 8301 8301 8360 8360 8360 8360 8360 8360 8360 8360 8360 8360 8360 8360 8360 8360 8360 8360 8360 8360 8360 8360 8360 8360 8360 8360 8360
7770 8137 8137 8314 8314 8314 8314 8314 8314 8314 8314 8314 8314 8395 8395 8395 8395 8395 8395 8395 8395 8395 8395 8395 8395 8395 8395 8395 8395 8395 8395 8395 8395 8395 8395 8395 8395 8395 8395 8395
7873 8054 8095 8136 8272 8272 8272 8272 8272 8272 8272 8272 8272 8272 8272 8272 8272 8272 8272 8272 8272 8272 8272 8272 8272 8272 8272 8272 8272 8272 8272 8272 8272 8272 8272 8272 8272 8272 8272 8272
7573 8091 8138 8138 8243 8243 8265 8265 8265 8265 8318 8318 8318 8318 8318 8318 8318 8403 8403 8403 8403 8403 8403 8403 8403 8403 8403 8403 8403 8403 8403 8403 8403 8403 8403 8403 8403 8403 8403 8403
7487 8180 8180 8180 8180 8180 8180 8180 8180 8180 8180 8231 8231 8231 8231 8231 8231 8231 8269 8307 8307 8307 8307 8307 8307 8307 8307 8307 8307 8307 8307 8307 8307 8307 8307 8307 8307 8307 8307 8307
7776 8147 8147 8198 8198 8198 8198 8316 8409 8409 8409 8409 8409 8409 8409 8409 8421 8421 8421 8421 8421 8421 8421 8421 8421 8421 8421 8421 8421 8421 8421 8421 8421 8421 8421 8421 8421 8421 8421 8421
7626 8304 8304 8304 8304 8304 8304 8304 8304 8304 8304 8304 8314 8314 8314 8314 8314 8314 8314 8314 8314 8314 8314 8314 8314 8314 8314 8314 8314 8314 8314 8314 8314 8314 8314 8314 8314 8314 8314 8314
8102 8158 8223 8223 8223 8237 8237 8329 8329 8329 8329 8329 8329 8329 8329 8329 8329 8329 8329 8329 8329 8329 8329 8329 8329 8329 8329 8329 8329 8329 8329 8329 8329 8329 8329 8329 8329 8329 8329 8329
8109 8204 8248 8248 8276 8276 8276 8276 8298 8298 8298 8298 8298 8298 8298 8298 8298 8298 8298 8298 8298 8298 8298 8298 8298 8298 8298 8298 8298 8298 8298 8298 8298 8298 8298 8298 8298 8298 8298 8298
7718 8114 8201 8232 8232 8232 8232 8232 8232 8232 8232 8232 8232 8232 8286 8286 8286 8286 8286 8286 8372 8372 8372 8372 8372 8372 8372 8372 8372 8372 8372 8372 8372 8372 8372 8372 8372 8372 8372 8372
7840 8169 8478 8478 8478 8478 8478 8478 8478 8478 8478 8478 8478 8478 8478 8478 8478 8478 8478 8478 8478 8478 8478 8478 8478 8478 8478 8478 8478 8478 8478 8478 8478 8478 8478 8478 8478 8478 8478 8478
7734 8231 8231 8231 8231 8231 8231 8231 8338 8338 8338 8338 8338 8338 8338 8338 8338 8338 8338 8338 8338 8338 8338 8338 8338 8338 8338 8338 8338 8338 8338 8338 8338 8338 8338 8338 8338 8338 8338 8338
8081 8391 8391 8391 8391 8391 8391 8391 8402 8402 8402 8407 8407 8407 8407 8407 8407 8407 8407 8407 8407 8407 8407 8407 8407 8407 8407 8407 8407 8407 8407 8407 8407 8407 8407 8407 8407 8407 8407 8407
7864 8171 8229 8229 8229 8398 8398 8398 8398 8398 8398 8398 8398 8398 8398 8398 8398 8398 8398 8398 8398 8398 8398 8398 8398 8398 8398 8398 8398 8398 8398 8398 8398 8398 8398 8398 8398 8398 8398 8398
7860 8157 8212 8294 8294 8294 8294 8294 8294 8294 8294 8294 8294 8294 8294 8294 8294 8294 8294 8294 8294 8294 8294 8294 8294 8294 8294 8294 8294 8294 8294 8294 8294 8294 8294 8294 8294 8294 8294 8294
7578 8015 8126 8252 8252 8252 8252 8252 8252 8252 8252 8252 8258 8325 8325 8325 8325 8325 8325 8383 8383 8383 8383 8383 8383 8383 8383 8383 8383 8383 8383 8383 8383 8383 8383 8383 8383 8383 8383 8383
8081 8229 8229 8229 8229 8229 8229 8256 8261 8261 8261 8261 8261 8261 8267 8267 8267 8267 8267 8267 8267 8267 8267 8267 8267 8267 8267 8267 8267 8267 8267 8267 8267 8267 8267 8267 8267 8267 8267 8267
6841 7573 8286 8286 8317 8317 8317 8317 8317 8317 8317 8317 8317 8317 8317 8317 8317 8317 8317 8317 8317 8317 8317 8317 8317 8317 8317 8362 8362 8362 8362 8362 8362 8362 8362 8362 8362 8362 8362 8362
7662 8065 8206 8206 8206 8221 8221 8221 8224 8237 8237 8237 8237 8237 8237 8318 8318 8318 8323 8323 8323 8323 8323 8323 8323 8323 8323 8323 8323 8323 8323 8323 8323 8323 8323 8323 8323 8323 8323 8323
7583 8185 8185 8185 8256 8256 8256 8256 8256 8256 8256 8256 8256 8271 8271 8271 8271 8271 8271 8271 8271 8271 8271 8271 8271 8271 8271 8271 8271 8271 8271 8271 8271 8271 8271 8271 8271 8271 8271 8271
7854 8257 8318 8318 8318 8318 8318 8318 8318 8318 8318 8318 8318 8318 8318 8318 8318 8318 8318 8318 8318 8318 8318 8318 8318 8318 8318 8318 8318 8318 8318 8318 8318 8318 8318 8318 8318 8318 8318 8318
7899 8117 8195 8195 8359 8359 8359 8359 8359 8359 8359 8359 8359 8359 8359 8359 8359 8359 8359 8359 8359 8359 8359 8359 8359 8359 8359 8359 8359 8359 8359 8359 8359 8359 8359 8359 8359 8359 8359 8359
7933 8034 8142 8142 8157 8157 8157 8157 8157 8157 8157 8169 8333 8333 8333 8333 8333 8333 8333 8333 8333 8333 8333 8333 8333 8333 8333 8333 8333 8333 8333 8333 8333 8333 8333 8333 8333 8333 8333 8333

GA2 Results:
8117 8476 8476 8476 8476 8476 8476 8476 8476 8476 8476 8528 8528 8529 8529 8552 8558 8558 8558 8558 8558 8558 8558 8558 8558 8558 8558 8558 8558 8558 8558 8558 8558 8558 8558 8558 8558 8558 8558 8558
8143 8266 8342 8513 8513 8513 8513 8513 8513 8513 8590 8590 8611 8666 8683 8683 8683 8683 8684 8684 8684 8684 8684 8684 8684 8684 8684 8684 8684 8684 8684 8684 8684 8684 8684 8684 8684 8684 8684 8684
8040 8379 8503 8509 8509 8618 8621 8621 8621 8621 8621 8621 8622 8661 8661 8661 8661 8661 8661 8662 8662 8682 8682 8682 8684 8684 8684 8684 8684 8684 8684 8684 8684 8684 8684 8684 8684 8684 8684 8684
8095 8183 8291 8439 8471 8471 8480 8508 8508 8508 8508 8556 8556 8557 8560 8613 8613 8613 8613 8613 8613 8613 8613 8629 8629 8629 8629 8629 8629 8629 8629 8629 8629 8629 8629 8629 8629 8629 8629 8629
8122 8239 8358 8421 8428 8428 8458 8504 8553 8553 8609 8616 8616 8616 8616 8631 8683 8683 8683 8683 8683 8683 8683 8683 8683 8683 8683 8683 8683 8683 8683 8683 8683 8683 8683 8683 8683 8683 8683 8683
8153 8212 8389 8428 8438 8463 8546 8546 8601 8601 8601 8601 8601 8601 8601 8601 8601 8601 8622 8622 8622 8622 8623 8629 8629 8629 8629 8629 8629 8629 8629 8629 8629 8629 8629 8629 8629 8629 8629 8629
8017 8290 8359 8457 8457 8483 8483 8565 8565 8642 8642 8642 8642 8666 8666 8685 8685 8685 8693 8693 8693 8693 8693 8693 8693 8693 8693 8693 8693 8693 8693 8693 8693 8693 8693 8693 8693 8693 8693 8693
8194 8232 8476 8483 8483 8483 8507 8518 8555 8558 8559 8567 8605 8640 8667 8682 8682 8682 8682 8682 8696 8703 8703 8703 8703 8703 8703 8703 8703 8703 8703 8703 8703 8703 8703 8703 8703 8703 8703 8703
7836 8311 8472 8547 8547 8547 8547 8547 8578 8585 8614 8629 8629 8671 8682 8684 8684 8687 8687 8693 8693 8693 8693 8693 8693 8693 8693 8693 8693 8693 8693 8693 8693 8693 8693 8693 8693 8693 8693 8693
7771 8243 8326 8326 8395 8420 8524 8553 8553 8553 8553 8553 8553 8553 8553 8553 8553 8553 8572 8591 8591 8638 8676 8676 8676 8676 8676 8676 8676 8676 8676 8676 8676 8676 8676 8676 8676 8676 8676 8676
7523 8478 8478 8478 8524 8532 8597 8616 8616 8616 8616 8702 8702 8702 8702 8702 8702 8702 8702 8702 8702 8702 8702 8702 8702 8702 8722 8722 8722 8722 8722 8722 8722 8722 8722 8722 8722 8722 8722 8722
8193 8315 8407 8407 8448 8448 8500 8526 8526 8526 8582 8582 8583 8608 8657 8683 8696 8696 8696 8696 8696 8696 8696 8696 8696 8696 8696 8696 8696 8722 8722 8722 8722 8722 8722 8722 8722 8722 8722 8722
8073 8073 8310 8395 8466 8614 8614 8614 8614 8614 8675 8675 8675 8675 8675 8675 8675 8675 8675 8675 8675 8698 8698 8698 8698 8698 8698 8698 8698 8698 8698 8698 8698 8698 8698 8698 8698 8698 8698 8698
8084 8268 8372 8372 8438 8438 8456 8456 8590 8590 8636 8636 8636 8636 8636 8661 8661 8661 8661 8661 8661 8679 8679 8679 8679 8679 8679 8679 8679 8679 8679 8679 8679 8679 8679 8679 8679 8679 8679 8679
8183 8230 8361 8480 8480 8480 8480 8480 8480 8502 8502 8560 8560 8607 8607 8607 8613 8675 8675 8675 8675 8675 8675 8675 8675 8675 8675 8675 8675 8675 8675 8675 8675 8675 8675 8675 8675 8675 8675 8675
7496 8169 8267 8322 8410 8410 8525 8559 8565 8565 8589 8589 8589 8609 8610 8610 8653 8675 8675 8675 8675 8675 8675 8677 8678 8678 8678 8678 8697 8697 8697 8721 8721 8721 8721 8721 8721 8721 8721 8721
7815 8115 8115 8369 8449 8489 8489 8489 8501 8501 8501 8566 8566 8566 8566 8598 8635 8638 8654 8654 8681 8681 8698 8698 8698 8698 8698 8698 8698 8698 8698 8698 8698 8698 8698 8698 8698 8698 8698 8698
8381 8435 8448 8535 8535 8535 8535 8535 8559 8559 8559 8559 8629 8629 8629 8629 8629 8629 8629 8684 8684 8684 8684 8693 8696 8696 8696 8722 8722 8722 8722 8722 8722 8722 8722 8722 8722 8722 8722 8722
8141 8331 8483 8483 8483 8483 8483 8484 8484 8488 8556 8556 8556 8573 8573 8592 8592 8612 8643 8687 8687 8687 8687 8687 8687 8687 8687 8687 8687 8687 8687 8687 8687 8687 8687 8687 8687 8687 8687 8687
8214 8394 8421 8476 8476 8476 8496 8583 8583 8651 8653 8656 8679 8683 8683 8683 8683 8683 8684 8684 8684 8684 8684 8684 8684 8684 8684 8684 8684 8684 8684 8684 8684 8684 8684 8684 8684 8684 8684 8684
7589 8119 8262 8287 8441 8496 8496 8523 8523 8523 8523 8523 8558 8559 8580 8580 8580 8580 8630 8630 8630 8633 8633 8665 8665 8665 8665 8665 8665 8665 8665 8665 8665 8665 8665 8665 8665 8665 8665 8665
7974 8303 8404 8404 8405 8405 8465 8465 8479 8507 8540 8540 8540 8557 8584 8584 8584 8584 8592 8592 8592 8592 8592 8592 8592 8601 8601 8601 8601 8601 8601 8601 8620 8620 8620 8620 8620 8620 8620 8620
8158 8294 8448 8448 8448 8448 8448 8504 8504 8545 8551 8551 8590 8614 8614 8620 8620 8625 8683 8684 8684 8684 8684 8684 8684 8684 8684 8684 8684 8684 8684 8684 8684 8684 8684 8684 8684 8684 8684 8684
7908 7932 8294 8322 8387 8387 8477 8566 8566 8566 8603 8603 8603 8603 8603 8623 8623 8623 8623 8639 8639 8639 8639 8639 8639 8639 8639 8639 8639 8639 8639 8639 8639 8639 8639 8639 8639 8639 8641 8641
7666 8285 8555 8555 8555 8633 8633 8633 8633 8633 8679 8679 8679 8679 8679 8684 8684 8684 8684 8684 8684 8684 8684 8684 8684 8684 8684 8684 8684 8684 8684 8684 8684 8684 8684 8684 8684 8684 8684 8684
8260 8372 8476 8489 8489 8504 8504 8504 8505 8505 8528 8528 8528 8569 8569 8569 8569 8569 8573 8573 8573 8573 8573 8573 8573 8573 8573 8573 8575 8575 8615 8616 8616 8681 8681 8681 8681 8681 8681 8681
8049 8194 8319 8386 8424 8424 8507 8507 8507 8507 8507 8513 8513 8579 8635 8639 8639 8690 8690 8690 8690 8690 8690 8690 8690 8690 8690 8690 8690 8690 8690 8690 8690 8690 8690 8690 8690 8690 8698 8698
7966 8318 8389 8522 8548 8548 8548 8582 8582 8582 8582 8600 8601 8601 8601 8601 8622 8622 8623 8636 8639 8639 8639 8650 8650 8676 8676 8676 8676 8676 8676 8676 8676 8676 8676 8676 8676 8676 8722 8722
7830 8116 8306 8402 8503 8572 8572 8578 8578 8578 8589 8589 8589 8606 8606 8606 8606 8606 8606 8617 8617 8633 8640 8640 8683 8683 8684 8703 8703 8703 8703 8703 8703 8703 8703 8703 8703 8703 8703 8703
7803 8260 8311 8358 8373 8408 8426 8426 8436 8441 8462 8462 8462 8462 8557 8603 8622 8665 8665 8665 8665 8665 8665 8665 8665 8665 8665 8674 8720 8720 8720 8720 8720 8720 8720 8720 8720 8720 8720 8720
